
List of user-set options:

                                    Name   Value                used
                           compl_inf_tol = 1                     yes
                         constr_viol_tol = 1                     yes
                            dual_inf_tol = 1000                  yes
                           linear_solver = ma97                  yes
                              ma86_small = 1e-30                  no
                                  ma86_u = 0.0001                 no
                              ma97_order = best                  yes
                              ma97_small = 1e-30                 yes
                            ma97_switch1 = at_start              yes
                            ma97_switch2 = od_hd_reuse           yes
                                  ma97_u = 1e-06                 yes
                               ma97_umax = 0.5                   yes
                                max_iter = 1000                  yes
                    max_refinement_steps = 20                    yes
                    min_refinement_steps = 5                     yes
                                 mu_init = 1e-06                 yes
           mu_superlinear_decrease_power = 1.25                  yes
                   nlp_scaling_min_value = 1e-08                 yes
                        option_file_name = Preset_Case_637_pf.opt  yes
                             output_file = ./tmp/Preset_Case_637_pf.output  yes
                      print_user_options = yes                   yes
        required_infeasibility_reduction = 1                      no
                                     tol = 1e-08                 yes
                   warm_start_bound_frac = 1e-20                 yes
                   warm_start_bound_push = 1e-20                 yes
                   warm_start_init_point = yes                   yes
              warm_start_mult_bound_push = 1e-20                 yes
                warm_start_mult_init_max = 1e+40                 yes
             warm_start_slack_bound_frac = 1e-20                 yes
             warm_start_slack_bound_push = 1e-20                 yes

******************************************************************************
This program contains Ipopt, a library for large-scale nonlinear optimization.
 Ipopt is released as open source code under the Eclipse Public License (EPL).
         For more information visit http://projects.coin-or.org/Ipopt
******************************************************************************

This is Ipopt version 3.12.10, running with linear solver ma97.

Number of nonzeros in equality constraint Jacobian...:   123442
Number of nonzeros in inequality constraint Jacobian.:      213
Number of nonzeros in Lagrangian Hessian.............:    49069

Total number of variables............................:    31591
                     variables with only lower bounds:    12912
                variables with lower and upper bounds:    15130
                     variables with only upper bounds:        0
Total number of equality constraints.................:    31483
Total number of inequality constraints...............:       25
        inequality constraints with only lower bounds:        4
   inequality constraints with lower and upper bounds:        0
        inequality constraints with only upper bounds:       21

iter    objective    inf_pr   inf_du lg(mu)  ||d||  lg(rg) alpha_du alpha_pr  ls
   0 -5.2790051e+00 4.05e-03 1.02e+00  -6.0 0.00e+00    -  0.00e+00 0.00e+00   0
   1 -5.2785133e+00 2.86e-02 1.02e+00  -6.0 4.05e+05    -  9.54e-05 4.14e-05h  6
   2 -5.2803260e+00 2.85e-02 3.77e+01  -6.0 6.84e+03    -  1.68e-01 1.90e-03h  1
   3 -5.3866535e+00 2.95e+00 1.95e+02  -6.0 6.83e+03    -  1.19e-01 1.12e-01f  1
   4 -5.4684353e+00 2.73e+01 3.00e+02  -6.0 1.10e+04    -  9.48e-02 1.05e-01h  1
   5 -5.6003789e+00 5.45e+01 6.39e+02  -6.0 8.38e+03    -  5.34e-02 2.05e-01h  1
   6 -5.6135049e+00 5.35e+01 2.66e+05  -6.0 6.35e+03    -  5.08e-01 2.82e-02h  1
   7 -5.9404523e+00 4.52e+01 3.61e+06  -6.0 3.72e+03    -  4.69e-04 7.63e-01h  1
   8 -5.9313828e+00 3.30e+01 2.67e+06  -6.0 7.57e+02    -  1.73e-01 2.69e-01h  1
   9 -5.9001864e+00 1.15e+01 1.05e+06  -6.0 3.34e+02    -  1.84e-01 6.52e-01h  1
iter    objective    inf_pr   inf_du lg(mu)  ||d||  lg(rg) alpha_du alpha_pr  ls
  10 -5.8891502e+00 8.32e+00 6.92e+05  -6.0 9.68e+00  -4.0 6.75e-01 2.77e-01h  1
  11 -5.8601982e+00 7.56e-03 2.01e+04  -6.0 1.51e+00  -4.5 5.85e-01 1.00e+00h  1
  12 -5.8606816e+00 4.96e-04 1.25e+04  -6.0 2.90e+00  -5.0 2.99e-01 1.00e+00h  1
  13 -5.8625734e+00 5.60e-02 6.06e+03  -6.0 7.89e+00  -5.4 5.16e-01 1.00e+00h  1
  14 -5.8641672e+00 1.27e-02 1.41e+03  -6.0 1.87e+01  -5.9 7.67e-01 1.00e+00h  1
  15 -5.8656404e+00 2.20e-02 5.72e+02  -6.0 4.43e+01  -6.4 5.94e-01 5.34e-01h  1
  16 -5.8703577e+00 2.74e-01 1.17e+01  -6.0 9.50e+01  -6.9 1.00e+00 1.00e+00h  1
  17 -5.8789702e+00 1.24e+00 3.86e+01  -6.0 3.06e+02  -7.3 2.96e-01 8.54e-01h  1
  18 -5.8814556e+00 1.21e+00 3.73e+01  -6.0 2.41e+03  -7.8 3.57e-02 2.79e-02h  1
  19 -5.9088333e+00 1.40e+01 7.09e+03  -6.0 1.30e+03  -8.3 1.59e-01 7.34e-01f  1
iter    objective    inf_pr   inf_du lg(mu)  ||d||  lg(rg) alpha_du alpha_pr  ls
  20 -5.9120575e+00 9.08e+00 4.01e+03  -6.0 8.19e+02  -7.0 4.95e-01 4.23e-01h  1
  21 -5.9152986e+00 8.58e+00 2.54e+03  -6.0 1.79e+03  -7.4 1.23e-01 5.52e-02h  1
  22 -5.9160129e+00 6.12e+00 3.97e+04  -6.0 3.99e+02  -7.9 1.00e+00 2.99e-01h  1
  23 -5.9162170e+00 6.07e+00 4.18e+04  -6.0 1.38e+04    -  5.36e-02 8.48e-03h  1
  24 -5.9176844e+00 5.68e+00 7.11e+04  -6.0 3.08e+03    -  6.80e-01 6.48e-02h  1
  25 -5.9185008e+00 5.39e+00 9.61e+04  -6.0 1.94e+03    -  1.00e+00 5.01e-02h  1
  26 -5.9242521e+00 3.08e+00 5.83e+04  -6.0 1.24e+03    -  8.13e-01 4.35e-01h  1
  27 -5.9293820e+00 2.45e+00 3.60e+04  -6.0 8.44e+02    -  3.78e-01 3.78e-01h  1
  28 -5.9323278e+00 2.84e+00 2.04e+04  -6.0 1.07e+03    -  1.52e-02 2.09e-01h  1
  29 -5.9370477e+00 1.56e+00 1.92e+05  -6.0 4.03e+02    -  1.69e-02 4.72e-01h  1
iter    objective    inf_pr   inf_du lg(mu)  ||d||  lg(rg) alpha_du alpha_pr  ls
  30 -5.9513338e+00 1.31e+00 7.06e+04  -6.0 2.31e+02  -6.6 4.67e-01 9.18e-01h  1
  31r-5.9513338e+00 1.31e+00 1.00e+03   0.1 0.00e+00    -  0.00e+00 4.20e-07R  4
  32r-5.9614821e+00 1.30e+00 1.00e+03   0.1 1.29e+04    -  5.92e-06 1.46e-06f  1
  33 -5.9613087e+00 1.29e+00 1.29e+05  -6.0 1.73e+01    -  9.32e-02 1.31e-02h  1
  34 -5.9550631e+00 1.11e+00 1.57e+06  -6.0 1.40e+01    -  1.31e-02 1.40e-01h  1
  35 -5.9452477e+00 7.38e-01 1.04e+06  -6.0 1.34e+01    -  2.02e-01 3.34e-01h  1
  36 -5.9409579e+00 3.65e-01 5.16e+05  -6.0 1.09e+01    -  2.26e-01 5.07e-01h  1
  37 -5.9501420e+00 2.20e-01 3.11e+05  -6.0 7.53e+00    -  8.41e-01 3.98e-01h  1
  38 -5.9400369e+00 1.65e-02 1.34e+02  -6.0 6.95e+00    -  9.25e-01 1.00e+00h  1
  39 -5.9430027e+00 1.19e-02 9.44e+01  -6.0 2.02e+01    -  9.10e-01 2.93e-01f  1
iter    objective    inf_pr   inf_du lg(mu)  ||d||  lg(rg) alpha_du alpha_pr  ls
  40 -5.9529256e+00 1.49e-01 1.82e+01  -6.0 9.22e+01    -  8.51e-01 9.70e-01h  1
  41 -5.9563114e+00 5.34e-01 1.70e+01  -6.0 2.31e+02    -  7.74e-01 2.10e-01h  1
  42 -5.9640857e+00 5.38e-01 3.19e+00  -6.0 1.54e+02    -  8.41e-01 8.26e-01h  1
  43 -5.9646845e+00 6.65e-01 4.59e+03  -6.0 8.42e+02    -  2.77e-02 8.37e-02h  1
  44 -5.9645481e+00 5.88e-01 3.38e+03  -6.0 1.79e+02    -  3.90e-01 1.00e+00h  1
  45 -5.9619053e+00 4.32e-01 6.61e+03  -6.0 3.27e+02    -  4.68e-01 1.00e+00H  1
  46 -5.9620687e+00 1.14e-01 1.27e+03  -6.0 5.16e+01    -  9.98e-01 8.07e-01h  1
  47 -5.9619964e+00 3.72e-02 1.54e-01  -6.0 4.58e+01    -  1.00e+00 1.00e+00h  1
  48 -5.9620543e+00 4.37e-04 2.92e-02  -6.0 3.46e+00    -  1.00e+00 1.00e+00h  1
  49 -5.9620556e+00 1.94e-04 1.14e-02  -6.0 2.30e+00    -  1.00e+00 1.00e+00h  1
iter    objective    inf_pr   inf_du lg(mu)  ||d||  lg(rg) alpha_du alpha_pr  ls
  50 -5.9620550e+00 1.03e-05 6.84e-04  -6.0 5.47e-01    -  1.00e+00 1.00e+00h  1
  51 -5.9620549e+00 3.90e-08 2.58e-06  -6.0 3.36e-02    -  1.00e+00 1.00e+00h  1
  52 -5.9621813e+00 2.94e+00 8.06e+01  -7.5 5.46e+02    -  5.16e-01 7.95e-01h  1
  53 -5.9621705e+00 8.23e-01 2.66e+01  -7.5 1.12e+02    -  7.09e-01 7.62e-01h  1
  54 -5.9621650e+00 3.42e-02 4.89e-02  -7.5 4.54e+01    -  1.00e+00 1.00e+00h  1
  55 -5.9621648e+00 1.06e-05 1.04e-05  -7.5 7.78e-01    -  1.00e+00 1.00e+00h  1
  56 -5.9621648e+00 2.84e-10 6.04e-11  -7.5 2.47e-03    -  1.00e+00 1.00e+00h  1
  57 -5.9621663e+00 4.08e-03 8.99e-01  -9.0 1.93e+01    -  9.23e-01 8.25e-01h  1
  58 -5.9621665e+00 1.91e-04 6.60e-04  -9.0 3.45e+00    -  1.00e+00 1.00e+00h  1
  59 -5.9621665e+00 4.27e-10 6.34e-09  -9.0 3.30e-03    -  1.00e+00 1.00e+00h  1

Number of Iterations....: 59

                                   (scaled)                 (unscaled)
Objective...............:  -4.6579426033434128e+00   -5.9621665322795687e+00
Dual infeasibility......:   6.3432239842113699e-09    8.1193266997905543e-09
Constraint violation....:   4.2655139782712265e-10    4.2655139782712265e-10
Complementarity.........:   1.4622280061171973e-09    1.8716518478300124e-09
Overall NLP error.......:   6.3432239842113699e-09    8.1193266997905543e-09


Number of objective function evaluations             = 71
Number of objective gradient evaluations             = 60
Number of equality constraint evaluations            = 71
Number of inequality constraint evaluations          = 71
Number of equality constraint Jacobian evaluations   = 61
Number of inequality constraint Jacobian evaluations = 61
Number of Lagrangian Hessian evaluations             = 59
Total CPU secs in IPOPT (w/o function evaluations)   =    129.758
Total CPU secs in NLP function evaluations           =      2.241

EXIT: Optimal Solution Found.
